n_res = 4;
rcap = [23, 30, 90, 87];
rtype = [1, 1, 2, 2];
n_tasks = 16;
modes = [ {1, 2, 3, 4, 5}, {6, 7, 8, 9, 10}, {11, 12, 13, 14, 15}, {16, 17, 18, 19, 20}, {21, 22, 23, 24, 25}, {26, 27, 28, 29, 30}, {31, 32, 33, 34, 35}, {36, 37, 38, 39, 40}, {41, 42, 43, 44, 45}, {46, 47, 48, 49, 50}, {51, 52, 53, 54, 55}, {56, 57, 58, 59, 60}, {61, 62, 63, 64, 65}, {66, 67, 68, 69, 70}, {71, 72, 73, 74, 75}, {76, 77, 78, 79, 80} ];
succ = [ {4, 5, 8}, {7, 13}, {4, 6, 11}, {9}, {6, 10}, {16}, {8, 12}, {14, 15}, {10, 13, 15}, {12, 14}, {12, 13, 15}, {16}, {14, 16}, {}, {}, {} ];
n_opt = 80;
dur = [1, 4, 4, 6, 10, 1, 1, 6, 9, 10, 3, 5, 6, 9, 10, 2, 6, 7, 8, 10, 2, 3, 7, 9, 10, 2, 4, 7, 8, 10, 1, 1, 2, 4, 8, 1, 1, 3, 6, 9, 3, 6, 9, 9, 10, 2, 2, 3, 4, 8, 7, 7, 8, 9, 10, 2, 3, 6, 7, 9, 5, 6, 8, 9, 10, 4, 5, 6, 7, 9, 3, 6, 8, 9, 10, 2, 3, 3, 8, 8];
rreq = [|  0,  0,  3,  2,  0,  0,  6,  6,  6,  0,  0,  8,  0,  7,  6,  0,  7,  0,  0,  0,  5,  5,  5,  4,  0,  8,  5,  0,  0,  4,  0,  7,  6,  3,  0,  0,  8,  8,  7,  7,  5,  0,  4,  0,  0,  0,  5,  0,  0,  4,  8,  0,  7,  7,  6,  0,  0,  9,  8,  5,  6,  6,  5,  0,  5,  0,  8,  0,  0,  7,  0,  6,  5,  0,  2,  6,  0,  2,  0,  0
        |  9,  7,  0,  0,  7,  1,  0,  0,  0,  1,  8,  0,  5,  0,  0,  5,  0,  4,  4,  2,  0,  0,  0,  0,  9,  0,  0,  8,  8,  0,  7,  0,  0,  0,  5,  8,  0,  0,  0,  0,  0,  9,  0,  7,  3,  9,  0,  9,  9,  0,  0,  4,  0,  0,  0,  8,  7,  0,  0,  0,  0,  0,  0,  6,  0,  2,  0,  2,  1,  0,  7,  0,  0,  5,  0,  0,  7,  0,  7,  5
        |  7,  5,  5,  5,  3, 10, 10, 10, 10,  9,  4,  4,  3,  3,  2,  7,  5,  4,  3,  2,  5,  5,  4,  4,  4,  4,  3,  3,  2,  2,  9,  9,  8,  7,  5,  6,  6,  4,  3,  1,  8,  6,  5,  5,  5, 10, 10, 10,  9,  9,  9, 10,  8,  7,  3,  8,  7,  7,  7,  6,  3,  2,  2,  1,  1,  9,  8,  7,  7,  7,  6,  5,  5,  4,  3,  6,  5,  6,  5,  5
        |  5,  5,  5,  5,  3,  6,  6,  5,  4,  3,  9,  8,  8,  7,  7,  7,  7,  4,  4,  2,  8,  7,  6,  6,  4, 10, 10,  9,  9,  9,  8,  7,  7,  5,  5,  4,  4,  3,  2,  1,  9,  9,  9,  8,  7,  4,  4,  3,  3,  2,  8,  9,  7,  6,  4,  4,  3,  3,  3,  2,  7,  5,  5,  4,  3,  8,  6,  5,  4,  2,  7,  6,  4,  3,  1, 10,  8,  5,  4,  5 |];
